(set-logic ALL)
(declare-fun var0 () String)
(assert (str.in_re var0 (re.++ (re.* (re.+ (str.to_re "00"))) (re.++ (re.* (re.union (str.to_re "1") (str.to_re "222"))) (re.++ (re.+ (re.+ (str.to_re "333"))) (re.++ (re.* (re.union (str.to_re "4") (str.to_re "55"))) (re.++ (re.* (re.+ (str.to_re "66"))) (re.++ (re.+ (re.+ (str.to_re "777"))) (re.++ (re.union (re.union (str.to_re "8") (str.to_re "9")) (re.+ (str.to_re "aaa"))) (re.++ (re.+ (re.+ (str.to_re "bbb"))) (re.++ (re.+ (re.union (str.to_re "ccc") (str.to_re "ddd"))) (re.* (re.* (str.to_re "eee"))))))))))))))
(assert (<= 251 (str.len var0)))
(check-sat)